c WARNING: for repeatability, setting FPU to use double precision
d VARIABLES            26185        
d CONSTRAINTS          87382        
c ============================[ Problem Statistics ]=============================
c |                                                                             |
c |  Number of variables:         26185                                         |
c |  Number of clauses:           87382                                         |
c |  Parse time:                   0.02 s                                       |
c |                                                                             |
c ============================[ Search Statistics ]==============================
c | Conflicts |          ORIGINAL         |          LEARNT          | Progress |
c |           |    Vars  Clauses Literals |    Limit  Clauses Lit/Cl |          |
c ===============================================================================
c |       100 |   16878    62718   157390 |    22996      100     60 | 35.543 % |
c |       250 |   16878    62718   157390 |    25296      250     40 | 35.543 % |
c |       475 |   16878    62718   157390 |    27825      475     40 | 35.543 % |
c ===============================================================================
c restarts              : 6
c conflicts             : 702            (9749 /sec)
c decisions             : 4644           (0.00 % random) (64496 /sec)
c propagations          : 493904         (6859397 /sec)
c conflict literals     : 23298          (10.24 % deleted)
d RESTARTS             6
d FAILURES             702          
d NODES                4644         
d BACKTRACKS           4644         
d PROPAGATIONS         493904       
d NOGOODSIZE           33.19 
d MEMORY               12.00 
d TIME                 0.072004 

s SATISFIABLE
